Maximize
 0
Subject To
 epc_0!1: -34.76099569025723 y_1!1_2!1 -44.95496955416289 y_1!2_2!1 -86.10011464917962 y_1!3_2!1 +97.54045515984222 y_1!4_2!1 -24.340592914808525 y_1!5_2!1 +86.96609607571096 y_1!1_2!2 +80.95902330496011 y_1!2_2!2 +92.4247984778309 y_1!3_2!2 +17.561122246426592 y_1!4_2!2 -38.16859417479108 y_1!5_2!2 -91.57167833810158 y_1!1_2!3 +51.90733723359725 y_1!2_2!3 -6.643372730570391 y_1!3_2!3 -99.91377548271403 y_1!4_2!3 -46.63910702651557 y_1!5_2!3 +89.10928980916876 y_1!1_2!4 +46.362124663165815 y_1!2_2!4 +25.356725357884798 y_1!3_2!4 -42.6081522563108 y_1!4_2!4 +33.69112713896709 y_1!5_2!4 +27.59807315669262 y_1!1_2!5 +59.50796881745691 y_1!2_2!5 -55.524991836127114 y_1!3_2!5 +91.89743450203534 y_1!4_2!5 +40.98275015027028 y_1!5_2!5 + lambda_0!1 - mu_0 = 0
 epc_0!2: -1.8942239146333861 y_1!1_2!1 -36.397565341296676 y_1!2_2!1 +37.30238727585976 y_1!3_2!1 +71.25339955470452 y_1!4_2!1 -40.947557502594314 y_1!5_2!1 -38.00927653920307 y_1!1_2!2 -41.787269683259545 y_1!2_2!2 +73.5122442215353 y_1!3_2!2 -56.51428333128297 y_1!4_2!2 -28.800938599941233 y_1!5_2!2 -83.81035726694668 y_1!1_2!3 +41.92814075779722 y_1!2_2!3 +57.62143942931698 y_1!3_2!3 -42.742176941994735 y_1!4_2!3 -13.700099650919825 y_1!5_2!3 +51.21880638803958 y_1!1_2!4 +16.08253871793528 y_1!2_2!4 +80.13322751117519 y_1!3_2!4 -44.94772843320967 y_1!4_2!4 -51.16225231548746 y_1!5_2!4 -15.853831991186667 y_1!1_2!5 +36.31704920221367 y_1!2_2!5 -70.9005406105269 y_1!3_2!5 +30.351049305035616 y_1!4_2!5 +59.13055010696718 y_1!5_2!5 + lambda_0!2 - mu_0 = 0
 epc_0!3: -28.199017879531027 y_1!1_2!1 -3.1440609254959924 y_1!2_2!1 -29.950435984329474 y_1!3_2!1 -29.588307105668548 y_1!4_2!1 -42.978606528037176 y_1!5_2!1 -86.24231901963606 y_1!1_2!2 -43.22427530590485 y_1!2_2!2 -97.30625828225486 y_1!3_2!2 +61.36398723388646 y_1!4_2!2 +18.206891047125808 y_1!5_2!2 +70.55499783591799 y_1!1_2!3 +78.20445793361517 y_1!2_2!3 -10.175189101181587 y_1!3_2!3 -93.1150236591143 y_1!4_2!3 +17.657678713447325 y_1!5_2!3 -79.6660159078786 y_1!1_2!4 +29.325183615118988 y_1!2_2!4 -46.836400103986065 y_1!3_2!4 -58.9457556359525 y_1!4_2!4 +8.904469824847865 y_1!5_2!4 +59.02429319897314 y_1!1_2!5 +28.00733379947326 y_1!2_2!5 -15.510250837903982 y_1!3_2!5 -42.303711276994505 y_1!4_2!5 -28.580745342568775 y_1!5_2!5 + lambda_0!3 - mu_0 = 0
 epc_0!4: +25.658898038180908 y_1!1_2!1 -85.84088521728609 y_1!2_2!1 -82.16275021973765 y_1!3_2!1 -58.111395275772516 y_1!4_2!1 +72.15455206089578 y_1!5_2!1 +56.15393040037446 y_1!1_2!2 +41.74688309799578 y_1!2_2!2 +15.051987712528828 y_1!3_2!2 +55.525641453100434 y_1!4_2!2 -34.20809459072001 y_1!5_2!2 -7.866972513222038 y_1!1_2!3 -0.2918332594590538 y_1!2_2!3 -20.355008208752864 y_1!3_2!3 -56.42876904625498 y_1!4_2!3 -16.713603726473252 y_1!5_2!3 -29.417894491758688 y_1!1_2!4 -37.8596086319052 y_1!2_2!4 -20.12319485066527 y_1!3_2!4 -34.80674072748873 y_1!4_2!4 -47.79766804805645 y_1!5_2!4 +94.90886697096411 y_1!1_2!5 -49.55367894616312 y_1!2_2!5 -24.899839142244076 y_1!3_2!5 +15.07250511863569 y_1!4_2!5 +35.759847666510524 y_1!5_2!5 + lambda_0!4 - mu_0 = 0
 epc_0!5: -30.32463110823889 y_1!1_2!1 -85.17458791811305 y_1!2_2!1 -58.93370756924601 y_1!3_2!1 +34.372224198019836 y_1!4_2!1 +74.78278095994165 y_1!5_2!1 -61.35326979589193 y_1!1_2!2 +76.12565156398432 y_1!2_2!2 -21.570091850342592 y_1!3_2!2 -84.79933874734974 y_1!4_2!2 +75.26926265718103 y_1!5_2!2 +16.0992964541161 y_1!1_2!3 -76.28411085387677 y_1!2_2!3 +93.14832889594064 y_1!3_2!3 -96.35503182587637 y_1!4_2!3 +41.24588708272995 y_1!5_2!3 -15.517602548673693 y_1!1_2!4 -4.656174432445411 y_1!2_2!4 +21.64552204499448 y_1!3_2!4 -37.316310968498456 y_1!4_2!4 +85.21927095181138 y_1!5_2!4 -84.5144570192885 y_1!1_2!5 +60.30688036337429 y_1!2_2!5 +35.839455954973744 y_1!3_2!5 +90.4682915407268 y_1!4_2!5 +12.34723150483181 y_1!5_2!5 + lambda_0!5 - mu_0 = 0
 dc_0: x_0!1 + x_0!2 + x_0!3 + x_0!4 + x_0!5 = 1
 bc_0!1: lambda_0!1 +297.45423064255624 x_0!1 <= 297.45423064255624
 bc_0!2: lambda_0!2 +297.45423064255624 x_0!2 <= 297.45423064255624
 bc_0!3: lambda_0!3 +297.45423064255624 x_0!3 <= 297.45423064255624
 bc_0!4: lambda_0!4 +297.45423064255624 x_0!4 <= 297.45423064255624
 bc_0!5: lambda_0!5 +297.45423064255624 x_0!5 <= 297.45423064255624
 sum_0!1: y_1!1_2!1 - x_1!1 - x_2!1 >= -1
 idk_0!1!1: y_1!1_2!1 - x_1!1 <= 0
 idk_0!1!2: y_1!1_2!1 - x_2!1 <= 0
 sum_0!2: y_1!2_2!1 - x_1!2 - x_2!1 >= -1
 idk_0!2!1: y_1!2_2!1 - x_1!2 <= 0
 idk_0!2!2: y_1!2_2!1 - x_2!1 <= 0
 sum_0!3: y_1!3_2!1 - x_1!3 - x_2!1 >= -1
 idk_0!3!1: y_1!3_2!1 - x_1!3 <= 0
 idk_0!3!2: y_1!3_2!1 - x_2!1 <= 0
 sum_0!4: y_1!4_2!1 - x_1!4 - x_2!1 >= -1
 idk_0!4!1: y_1!4_2!1 - x_1!4 <= 0
 idk_0!4!2: y_1!4_2!1 - x_2!1 <= 0
 sum_0!5: y_1!5_2!1 - x_1!5 - x_2!1 >= -1
 idk_0!5!1: y_1!5_2!1 - x_1!5 <= 0
 idk_0!5!2: y_1!5_2!1 - x_2!1 <= 0
 sum_0!6: y_1!1_2!2 - x_1!1 - x_2!2 >= -1
 idk_0!6!1: y_1!1_2!2 - x_1!1 <= 0
 idk_0!6!2: y_1!1_2!2 - x_2!2 <= 0
 sum_0!7: y_1!2_2!2 - x_1!2 - x_2!2 >= -1
 idk_0!7!1: y_1!2_2!2 - x_1!2 <= 0
 idk_0!7!2: y_1!2_2!2 - x_2!2 <= 0
 sum_0!8: y_1!3_2!2 - x_1!3 - x_2!2 >= -1
 idk_0!8!1: y_1!3_2!2 - x_1!3 <= 0
 idk_0!8!2: y_1!3_2!2 - x_2!2 <= 0
 sum_0!9: y_1!4_2!2 - x_1!4 - x_2!2 >= -1
 idk_0!9!1: y_1!4_2!2 - x_1!4 <= 0
 idk_0!9!2: y_1!4_2!2 - x_2!2 <= 0
 sum_0!10: y_1!5_2!2 - x_1!5 - x_2!2 >= -1
 idk_0!10!1: y_1!5_2!2 - x_1!5 <= 0
 idk_0!10!2: y_1!5_2!2 - x_2!2 <= 0
 sum_0!11: y_1!1_2!3 - x_1!1 - x_2!3 >= -1
 idk_0!11!1: y_1!1_2!3 - x_1!1 <= 0
 idk_0!11!2: y_1!1_2!3 - x_2!3 <= 0
 sum_0!12: y_1!2_2!3 - x_1!2 - x_2!3 >= -1
 idk_0!12!1: y_1!2_2!3 - x_1!2 <= 0
 idk_0!12!2: y_1!2_2!3 - x_2!3 <= 0
 sum_0!13: y_1!3_2!3 - x_1!3 - x_2!3 >= -1
 idk_0!13!1: y_1!3_2!3 - x_1!3 <= 0
 idk_0!13!2: y_1!3_2!3 - x_2!3 <= 0
 sum_0!14: y_1!4_2!3 - x_1!4 - x_2!3 >= -1
 idk_0!14!1: y_1!4_2!3 - x_1!4 <= 0
 idk_0!14!2: y_1!4_2!3 - x_2!3 <= 0
 sum_0!15: y_1!5_2!3 - x_1!5 - x_2!3 >= -1
 idk_0!15!1: y_1!5_2!3 - x_1!5 <= 0
 idk_0!15!2: y_1!5_2!3 - x_2!3 <= 0
 sum_0!16: y_1!1_2!4 - x_1!1 - x_2!4 >= -1
 idk_0!16!1: y_1!1_2!4 - x_1!1 <= 0
 idk_0!16!2: y_1!1_2!4 - x_2!4 <= 0
 sum_0!17: y_1!2_2!4 - x_1!2 - x_2!4 >= -1
 idk_0!17!1: y_1!2_2!4 - x_1!2 <= 0
 idk_0!17!2: y_1!2_2!4 - x_2!4 <= 0
 sum_0!18: y_1!3_2!4 - x_1!3 - x_2!4 >= -1
 idk_0!18!1: y_1!3_2!4 - x_1!3 <= 0
 idk_0!18!2: y_1!3_2!4 - x_2!4 <= 0
 sum_0!19: y_1!4_2!4 - x_1!4 - x_2!4 >= -1
 idk_0!19!1: y_1!4_2!4 - x_1!4 <= 0
 idk_0!19!2: y_1!4_2!4 - x_2!4 <= 0
 sum_0!20: y_1!5_2!4 - x_1!5 - x_2!4 >= -1
 idk_0!20!1: y_1!5_2!4 - x_1!5 <= 0
 idk_0!20!2: y_1!5_2!4 - x_2!4 <= 0
 sum_0!21: y_1!1_2!5 - x_1!1 - x_2!5 >= -1
 idk_0!21!1: y_1!1_2!5 - x_1!1 <= 0
 idk_0!21!2: y_1!1_2!5 - x_2!5 <= 0
 sum_0!22: y_1!2_2!5 - x_1!2 - x_2!5 >= -1
 idk_0!22!1: y_1!2_2!5 - x_1!2 <= 0
 idk_0!22!2: y_1!2_2!5 - x_2!5 <= 0
 sum_0!23: y_1!3_2!5 - x_1!3 - x_2!5 >= -1
 idk_0!23!1: y_1!3_2!5 - x_1!3 <= 0
 idk_0!23!2: y_1!3_2!5 - x_2!5 <= 0
 sum_0!24: y_1!4_2!5 - x_1!4 - x_2!5 >= -1
 idk_0!24!1: y_1!4_2!5 - x_1!4 <= 0
 idk_0!24!2: y_1!4_2!5 - x_2!5 <= 0
 sum_0!25: y_1!5_2!5 - x_1!5 - x_2!5 >= -1
 idk_0!25!1: y_1!5_2!5 - x_1!5 <= 0
 idk_0!25!2: y_1!5_2!5 - x_2!5 <= 0
 epc_1!1: -82.88068895103805 y_0!1_2!1 -94.30443324875502 y_0!2_2!1 -75.96195224440379 y_0!3_2!1 +46.416821254208315 y_0!4_2!1 -22.057929112304635 y_0!5_2!1 -25.56168604157773 y_0!1_2!2 -14.79916079788184 y_0!2_2!2 -90.71301200609155 y_0!3_2!2 -40.83168590374178 y_0!4_2!2 -71.44102127856411 y_0!5_2!2 -56.92003949146771 y_0!1_2!3 -93.77828133829982 y_0!2_2!3 +35.31870609934009 y_0!3_2!3 -64.63383290289448 y_0!4_2!3 +67.44619564052687 y_0!5_2!3 -31.442194560433194 y_0!1_2!4 +26.01739959822187 y_0!2_2!4 +45.808829769526284 y_0!3_2!4 -64.95638560101904 y_0!4_2!4 -64.59456836576693 y_0!5_2!4 -90.65107460846376 y_0!1_2!5 -57.08052989393075 y_0!2_2!5 +9.597433279890282 y_0!3_2!5 +11.895266698558899 y_0!4_2!5 +75.59141197186341 y_0!5_2!5 + lambda_1!1 - mu_1 = 0
 epc_1!2: +53.40179303408422 y_0!1_2!1 +3.1362807041217593 y_0!2_2!1 +16.33803574439696 y_0!3_2!1 -23.120001370847817 y_0!4_2!1 +60.87986181082803 y_0!5_2!1 -91.51149951071396 y_0!1_2!2 -23.41851614042436 y_0!2_2!2 +76.64263439941442 y_0!3_2!2 -39.69871264197209 y_0!4_2!2 +40.52851177772837 y_0!5_2!2 +5.826058349230351 y_0!1_2!3 -52.322999492665836 y_0!2_2!3 -60.576517449961685 y_0!3_2!3 -39.97446334085626 y_0!4_2!3 +15.158467656599669 y_0!5_2!3 +50.92245203796361 y_0!1_2!4 +35.72211587394963 y_0!2_2!4 +25.20208849474608 y_0!3_2!4 -94.41517859026129 y_0!4_2!4 -78.751117556509 y_0!5_2!4 +6.492066870486596 y_0!1_2!5 +43.18503508133685 y_0!2_2!5 +97.77900025231668 y_0!3_2!5 -73.72468699452867 y_0!4_2!5 -82.47668056889361 y_0!5_2!5 + lambda_1!2 - mu_1 = 0
 epc_1!3: -40.76527695185932 y_0!1_2!1 +23.354692530570716 y_0!2_2!1 +77.60382075002249 y_0!3_2!1 -44.184379314455754 y_0!4_2!1 -30.9791801401889 y_0!5_2!1 +98.37359850724008 y_0!1_2!2 -59.58833396920624 y_0!2_2!2 +95.7121630868017 y_0!3_2!2 +74.08511808694863 y_0!4_2!2 -65.98496309677279 y_0!5_2!2 +29.14547524161469 y_0!1_2!3 +54.1067435949432 y_0!2_2!3 +10.098005202643662 y_0!3_2!3 +14.392004191588683 y_0!4_2!3 +78.06380456292516 y_0!5_2!3 +54.61442322961949 y_0!1_2!4 -36.37514115928968 y_0!2_2!4 +86.82807812486871 y_0!3_2!4 +76.14120606677622 y_0!4_2!4 +55.64347506507164 y_0!5_2!4 +56.92813372039021 y_0!1_2!5 +24.63270684951202 y_0!2_2!5 +6.977634765312814 y_0!3_2!5 +21.310146883973786 y_0!4_2!5 +83.95807975859262 y_0!5_2!5 + lambda_1!3 - mu_1 = 0
 epc_1!4: +98.1489500581099 y_0!1_2!1 -83.51350331173842 y_0!2_2!1 +10.303135294119215 y_0!3_2!1 -2.2854708882274792 y_0!4_2!1 +47.35155620530929 y_0!5_2!1 +83.64918164891236 y_0!1_2!2 -54.6961014066127 y_0!2_2!2 +4.220075746675377 y_0!3_2!2 -86.7042740674579 y_0!4_2!2 -49.027697765287684 y_0!5_2!2 -44.20318830498262 y_0!1_2!3 -91.62627198981063 y_0!2_2!3 -9.883007862479616 y_0!3_2!3 -6.988881993212232 y_0!4_2!3 -18.017327779225994 y_0!5_2!3 +77.64634284966797 y_0!1_2!4 +14.356529679751006 y_0!2_2!4 -25.308491193156073 y_0!3_2!4 -5.365115767796169 y_0!4_2!4 -22.5235194010109 y_0!5_2!4 -44.86267884336825 y_0!1_2!5 -55.75653277274408 y_0!2_2!5 +32.25275543174419 y_0!3_2!5 -29.819744116940257 y_0!4_2!5 -46.516921837090244 y_0!5_2!5 + lambda_1!4 - mu_1 = 0
 epc_1!5: +88.68483751401959 y_0!1_2!1 +30.887953473450125 y_0!2_2!1 +95.46229329129653 y_0!3_2!1 +66.90633827521631 y_0!4_2!1 +12.730097936925972 y_0!5_2!1 +36.815526699538395 y_0!1_2!2 -78.2464582992253 y_0!2_2!2 -2.3160955472953333 y_0!3_2!2 -63.503347376933775 y_0!4_2!2 -43.32428119820493 y_0!5_2!2 +25.972837275111488 y_0!1_2!3 +75.29166769646463 y_0!2_2!3 +18.48099862000565 y_0!3_2!3 -90.77091747894698 y_0!4_2!3 +59.80194439967113 y_0!5_2!3 +48.81441268533007 y_0!1_2!4 +44.32708584208399 y_0!2_2!4 -71.09489658043276 y_0!3_2!4 +76.68358131734237 y_0!4_2!4 +22.18321955871754 y_0!5_2!4 -47.28343411198823 y_0!1_2!5 +11.321008884144845 y_0!2_2!5 +15.346781290259685 y_0!3_2!5 +89.4988129489742 y_0!4_2!5 -60.23311132423763 y_0!5_2!5 + lambda_1!5 - mu_1 = 0
 dc_1: x_1!1 + x_1!2 + x_1!3 + x_1!4 + x_1!5 = 1
 bc_1!1: lambda_1!1 +297.45423064255624 x_1!1 <= 297.45423064255624
 bc_1!2: lambda_1!2 +297.45423064255624 x_1!2 <= 297.45423064255624
 bc_1!3: lambda_1!3 +297.45423064255624 x_1!3 <= 297.45423064255624
 bc_1!4: lambda_1!4 +297.45423064255624 x_1!4 <= 297.45423064255624
 bc_1!5: lambda_1!5 +297.45423064255624 x_1!5 <= 297.45423064255624
 sum_1!1: y_0!1_2!1 - x_0!1 - x_2!1 >= -1
 idk_1!1!0: y_0!1_2!1 - x_0!1 <= 0
 idk_1!1!2: y_0!1_2!1 - x_2!1 <= 0
 sum_1!2: y_0!2_2!1 - x_0!2 - x_2!1 >= -1
 idk_1!2!0: y_0!2_2!1 - x_0!2 <= 0
 idk_1!2!2: y_0!2_2!1 - x_2!1 <= 0
 sum_1!3: y_0!3_2!1 - x_0!3 - x_2!1 >= -1
 idk_1!3!0: y_0!3_2!1 - x_0!3 <= 0
 idk_1!3!2: y_0!3_2!1 - x_2!1 <= 0
 sum_1!4: y_0!4_2!1 - x_0!4 - x_2!1 >= -1
 idk_1!4!0: y_0!4_2!1 - x_0!4 <= 0
 idk_1!4!2: y_0!4_2!1 - x_2!1 <= 0
 sum_1!5: y_0!5_2!1 - x_0!5 - x_2!1 >= -1
 idk_1!5!0: y_0!5_2!1 - x_0!5 <= 0
 idk_1!5!2: y_0!5_2!1 - x_2!1 <= 0
 sum_1!6: y_0!1_2!2 - x_0!1 - x_2!2 >= -1
 idk_1!6!0: y_0!1_2!2 - x_0!1 <= 0
 idk_1!6!2: y_0!1_2!2 - x_2!2 <= 0
 sum_1!7: y_0!2_2!2 - x_0!2 - x_2!2 >= -1
 idk_1!7!0: y_0!2_2!2 - x_0!2 <= 0
 idk_1!7!2: y_0!2_2!2 - x_2!2 <= 0
 sum_1!8: y_0!3_2!2 - x_0!3 - x_2!2 >= -1
 idk_1!8!0: y_0!3_2!2 - x_0!3 <= 0
 idk_1!8!2: y_0!3_2!2 - x_2!2 <= 0
 sum_1!9: y_0!4_2!2 - x_0!4 - x_2!2 >= -1
 idk_1!9!0: y_0!4_2!2 - x_0!4 <= 0
 idk_1!9!2: y_0!4_2!2 - x_2!2 <= 0
 sum_1!10: y_0!5_2!2 - x_0!5 - x_2!2 >= -1
 idk_1!10!0: y_0!5_2!2 - x_0!5 <= 0
 idk_1!10!2: y_0!5_2!2 - x_2!2 <= 0
 sum_1!11: y_0!1_2!3 - x_0!1 - x_2!3 >= -1
 idk_1!11!0: y_0!1_2!3 - x_0!1 <= 0
 idk_1!11!2: y_0!1_2!3 - x_2!3 <= 0
 sum_1!12: y_0!2_2!3 - x_0!2 - x_2!3 >= -1
 idk_1!12!0: y_0!2_2!3 - x_0!2 <= 0
 idk_1!12!2: y_0!2_2!3 - x_2!3 <= 0
 sum_1!13: y_0!3_2!3 - x_0!3 - x_2!3 >= -1
 idk_1!13!0: y_0!3_2!3 - x_0!3 <= 0
 idk_1!13!2: y_0!3_2!3 - x_2!3 <= 0
 sum_1!14: y_0!4_2!3 - x_0!4 - x_2!3 >= -1
 idk_1!14!0: y_0!4_2!3 - x_0!4 <= 0
 idk_1!14!2: y_0!4_2!3 - x_2!3 <= 0
 sum_1!15: y_0!5_2!3 - x_0!5 - x_2!3 >= -1
 idk_1!15!0: y_0!5_2!3 - x_0!5 <= 0
 idk_1!15!2: y_0!5_2!3 - x_2!3 <= 0
 sum_1!16: y_0!1_2!4 - x_0!1 - x_2!4 >= -1
 idk_1!16!0: y_0!1_2!4 - x_0!1 <= 0
 idk_1!16!2: y_0!1_2!4 - x_2!4 <= 0
 sum_1!17: y_0!2_2!4 - x_0!2 - x_2!4 >= -1
 idk_1!17!0: y_0!2_2!4 - x_0!2 <= 0
 idk_1!17!2: y_0!2_2!4 - x_2!4 <= 0
 sum_1!18: y_0!3_2!4 - x_0!3 - x_2!4 >= -1
 idk_1!18!0: y_0!3_2!4 - x_0!3 <= 0
 idk_1!18!2: y_0!3_2!4 - x_2!4 <= 0
 sum_1!19: y_0!4_2!4 - x_0!4 - x_2!4 >= -1
 idk_1!19!0: y_0!4_2!4 - x_0!4 <= 0
 idk_1!19!2: y_0!4_2!4 - x_2!4 <= 0
 sum_1!20: y_0!5_2!4 - x_0!5 - x_2!4 >= -1
 idk_1!20!0: y_0!5_2!4 - x_0!5 <= 0
 idk_1!20!2: y_0!5_2!4 - x_2!4 <= 0
 sum_1!21: y_0!1_2!5 - x_0!1 - x_2!5 >= -1
 idk_1!21!0: y_0!1_2!5 - x_0!1 <= 0
 idk_1!21!2: y_0!1_2!5 - x_2!5 <= 0
 sum_1!22: y_0!2_2!5 - x_0!2 - x_2!5 >= -1
 idk_1!22!0: y_0!2_2!5 - x_0!2 <= 0
 idk_1!22!2: y_0!2_2!5 - x_2!5 <= 0
 sum_1!23: y_0!3_2!5 - x_0!3 - x_2!5 >= -1
 idk_1!23!0: y_0!3_2!5 - x_0!3 <= 0
 idk_1!23!2: y_0!3_2!5 - x_2!5 <= 0
 sum_1!24: y_0!4_2!5 - x_0!4 - x_2!5 >= -1
 idk_1!24!0: y_0!4_2!5 - x_0!4 <= 0
 idk_1!24!2: y_0!4_2!5 - x_2!5 <= 0
 sum_1!25: y_0!5_2!5 - x_0!5 - x_2!5 >= -1
 idk_1!25!0: y_0!5_2!5 - x_0!5 <= 0
 idk_1!25!2: y_0!5_2!5 - x_2!5 <= 0
 epc_2!1: -81.51235489430545 y_0!1_1!1 +86.13428368983807 y_0!2_1!1 -54.72698709054376 y_0!3_1!1 -57.05556135264962 y_0!4_1!1 +9.802339518030976 y_0!5_1!1 +39.46707628776812 y_0!1_1!2 +30.346335586195607 y_0!2_1!2 -98.84130162328803 y_0!3_1!2 +49.06958404180756 y_0!4_1!2 +52.35522185668475 y_0!5_1!2 +93.8938795142725 y_0!1_1!3 +85.61629701675574 y_0!2_1!3 -61.90660396925929 y_0!3_1!3 +97.48994670586944 y_0!4_1!3 -96.35478660463271 y_0!5_1!3 +19.607120603933595 y_0!1_1!4 -51.551773492230765 y_0!2_1!4 -33.04819801804568 y_0!3_1!4 -33.96567062926428 y_0!4_1!4 +32.13844277262882 y_0!5_1!4 -8.445337494260528 y_0!1_1!5 -0.02086815718196533 y_0!2_1!5 +78.73201773738123 y_0!3_1!5 +36.82694198123423 y_0!4_1!5 +15.10494513673855 y_0!5_1!5 + lambda_2!1 - mu_2 = 0
 epc_2!2: -57.696657526964465 y_0!1_1!1 +50.101197891611605 y_0!2_1!1 -72.90436863707059 y_0!3_1!1 -8.005659806356874 y_0!4_1!1 -88.54105192212731 y_0!5_1!1 -97.7805084359278 y_0!1_1!2 +8.665783502862041 y_0!2_1!2 +92.32840189375707 y_0!3_1!2 -28.422106666388288 y_0!4_1!2 -29.597622097286447 y_0!5_1!2 +16.31036130155917 y_0!1_1!3 -52.75972570210694 y_0!2_1!3 -5.970718064510379 y_0!3_1!3 -97.80064944599853 y_0!4_1!3 -68.4379222388632 y_0!5_1!3 +25.166241888228384 y_0!1_1!4 +96.86709474866365 y_0!2_1!4 +42.62454498337206 y_0!3_1!4 +31.545748706499836 y_0!4_1!4 +46.89172308101979 y_0!5_1!4 +16.400155003273497 y_0!1_1!5 +69.9223794681142 y_0!2_1!5 -43.66878978108848 y_0!3_1!5 +65.09411399041042 y_0!4_1!5 +68.30008369003576 y_0!5_1!5 + lambda_2!2 - mu_2 = 0
 epc_2!3: +17.457822706974795 y_0!1_1!1 +83.17958002105766 y_0!2_1!1 -72.72721977609052 y_0!3_1!1 -96.48538338634557 y_0!4_1!1 -17.640100744281867 y_0!5_1!1 -59.217780915725804 y_0!1_1!2 -72.12930035162776 y_0!2_1!2 +55.85511848374841 y_0!3_1!2 +80.33622731660157 y_0!4_1!2 -14.931660294467818 y_0!5_1!2 -63.94379030690782 y_0!1_1!3 -86.52118658306273 y_0!2_1!3 -41.38468929211392 y_0!3_1!3 -9.616223558470011 y_0!4_1!3 -39.952490467038125 y_0!5_1!3 +25.587723155515476 y_0!1_1!4 +25.26250561818574 y_0!2_1!4 -14.180117718300721 y_0!3_1!4 -22.973567745498286 y_0!4_1!4 -21.482105016435398 y_0!5_1!4 +93.1544957062483 y_0!1_1!5 +86.19829026662032 y_0!2_1!5 -80.39772307126798 y_0!3_1!5 +41.99408259041272 y_0!4_1!5 -29.31370943715457 y_0!5_1!5 + lambda_2!3 - mu_2 = 0
 epc_2!4: -69.30640828897457 y_0!1_1!1 -34.54957264092593 y_0!2_1!1 -3.3234267291985162 y_0!3_1!1 +58.823816136947926 y_0!4_1!1 -50.697217074205405 y_0!5_1!1 -73.83543704289255 y_0!1_1!2 +8.228444129555328 y_0!2_1!2 +35.40413316651939 y_0!3_1!2 -71.65330102088046 y_0!4_1!2 -25.47468214915935 y_0!5_1!2 -89.01693487285935 y_0!1_1!3 +22.624466185751913 y_0!2_1!3 -59.08464848698021 y_0!3_1!3 -13.697554236892387 y_0!4_1!3 +5.8932730310072685 y_0!5_1!3 +42.45032480773813 y_0!1_1!4 +46.64556361443647 y_0!2_1!4 +3.371313306032249 y_0!3_1!4 +62.79514179232112 y_0!4_1!4 +67.21190467304501 y_0!5_1!4 +47.4459267197046 y_0!1_1!5 -50.66101823240139 y_0!2_1!5 +46.12090400673671 y_0!3_1!5 -31.05281670939344 y_0!4_1!5 +11.760618325944577 y_0!5_1!5 + lambda_2!4 - mu_2 = 0
 epc_2!5: -52.9611415699958 y_0!1_1!1 -43.95292135874824 y_0!2_1!1 -38.91085748379079 y_0!3_1!1 +49.690146023036164 y_0!4_1!1 -0.8328036225532855 y_0!5_1!1 +93.66545861458121 y_0!1_1!2 -90.11648743207988 y_0!2_1!2 -65.2361951604866 y_0!3_1!2 -1.001327248688355 y_0!4_1!2 +19.116206777990925 y_0!5_1!2 -29.537347788748633 y_0!1_1!3 +25.38497891035192 y_0!2_1!3 +37.53236229100497 y_0!3_1!3 +75.72375432575959 y_0!4_1!3 -26.209889322833035 y_0!5_1!3 -60.052855016562766 y_0!1_1!4 -33.416530074783196 y_0!2_1!4 +1.0278940007447375 y_0!3_1!4 +55.72958054386561 y_0!4_1!4 -15.655048781717 y_0!5_1!4 -35.74968167904275 y_0!1_1!5 +37.20397057654631 y_0!2_1!5 -21.719072994138926 y_0!3_1!5 +19.081273612734734 y_0!4_1!5 +29.850044376072617 y_0!5_1!5 + lambda_2!5 - mu_2 = 0
 dc_2: x_2!1 + x_2!2 + x_2!3 + x_2!4 + x_2!5 = 1
 bc_2!1: lambda_2!1 +297.45423064255624 x_2!1 <= 297.45423064255624
 bc_2!2: lambda_2!2 +297.45423064255624 x_2!2 <= 297.45423064255624
 bc_2!3: lambda_2!3 +297.45423064255624 x_2!3 <= 297.45423064255624
 bc_2!4: lambda_2!4 +297.45423064255624 x_2!4 <= 297.45423064255624
 bc_2!5: lambda_2!5 +297.45423064255624 x_2!5 <= 297.45423064255624
 sum_2!1: y_0!1_1!1 - x_0!1 - x_1!1 >= -1
 idk_2!1!0: y_0!1_1!1 - x_0!1 <= 0
 idk_2!1!1: y_0!1_1!1 - x_1!1 <= 0
 sum_2!2: y_0!2_1!1 - x_0!2 - x_1!1 >= -1
 idk_2!2!0: y_0!2_1!1 - x_0!2 <= 0
 idk_2!2!1: y_0!2_1!1 - x_1!1 <= 0
 sum_2!3: y_0!3_1!1 - x_0!3 - x_1!1 >= -1
 idk_2!3!0: y_0!3_1!1 - x_0!3 <= 0
 idk_2!3!1: y_0!3_1!1 - x_1!1 <= 0
 sum_2!4: y_0!4_1!1 - x_0!4 - x_1!1 >= -1
 idk_2!4!0: y_0!4_1!1 - x_0!4 <= 0
 idk_2!4!1: y_0!4_1!1 - x_1!1 <= 0
 sum_2!5: y_0!5_1!1 - x_0!5 - x_1!1 >= -1
 idk_2!5!0: y_0!5_1!1 - x_0!5 <= 0
 idk_2!5!1: y_0!5_1!1 - x_1!1 <= 0
 sum_2!6: y_0!1_1!2 - x_0!1 - x_1!2 >= -1
 idk_2!6!0: y_0!1_1!2 - x_0!1 <= 0
 idk_2!6!1: y_0!1_1!2 - x_1!2 <= 0
 sum_2!7: y_0!2_1!2 - x_0!2 - x_1!2 >= -1
 idk_2!7!0: y_0!2_1!2 - x_0!2 <= 0
 idk_2!7!1: y_0!2_1!2 - x_1!2 <= 0
 sum_2!8: y_0!3_1!2 - x_0!3 - x_1!2 >= -1
 idk_2!8!0: y_0!3_1!2 - x_0!3 <= 0
 idk_2!8!1: y_0!3_1!2 - x_1!2 <= 0
 sum_2!9: y_0!4_1!2 - x_0!4 - x_1!2 >= -1
 idk_2!9!0: y_0!4_1!2 - x_0!4 <= 0
 idk_2!9!1: y_0!4_1!2 - x_1!2 <= 0
 sum_2!10: y_0!5_1!2 - x_0!5 - x_1!2 >= -1
 idk_2!10!0: y_0!5_1!2 - x_0!5 <= 0
 idk_2!10!1: y_0!5_1!2 - x_1!2 <= 0
 sum_2!11: y_0!1_1!3 - x_0!1 - x_1!3 >= -1
 idk_2!11!0: y_0!1_1!3 - x_0!1 <= 0
 idk_2!11!1: y_0!1_1!3 - x_1!3 <= 0
 sum_2!12: y_0!2_1!3 - x_0!2 - x_1!3 >= -1
 idk_2!12!0: y_0!2_1!3 - x_0!2 <= 0
 idk_2!12!1: y_0!2_1!3 - x_1!3 <= 0
 sum_2!13: y_0!3_1!3 - x_0!3 - x_1!3 >= -1
 idk_2!13!0: y_0!3_1!3 - x_0!3 <= 0
 idk_2!13!1: y_0!3_1!3 - x_1!3 <= 0
 sum_2!14: y_0!4_1!3 - x_0!4 - x_1!3 >= -1
 idk_2!14!0: y_0!4_1!3 - x_0!4 <= 0
 idk_2!14!1: y_0!4_1!3 - x_1!3 <= 0
 sum_2!15: y_0!5_1!3 - x_0!5 - x_1!3 >= -1
 idk_2!15!0: y_0!5_1!3 - x_0!5 <= 0
 idk_2!15!1: y_0!5_1!3 - x_1!3 <= 0
 sum_2!16: y_0!1_1!4 - x_0!1 - x_1!4 >= -1
 idk_2!16!0: y_0!1_1!4 - x_0!1 <= 0
 idk_2!16!1: y_0!1_1!4 - x_1!4 <= 0
 sum_2!17: y_0!2_1!4 - x_0!2 - x_1!4 >= -1
 idk_2!17!0: y_0!2_1!4 - x_0!2 <= 0
 idk_2!17!1: y_0!2_1!4 - x_1!4 <= 0
 sum_2!18: y_0!3_1!4 - x_0!3 - x_1!4 >= -1
 idk_2!18!0: y_0!3_1!4 - x_0!3 <= 0
 idk_2!18!1: y_0!3_1!4 - x_1!4 <= 0
 sum_2!19: y_0!4_1!4 - x_0!4 - x_1!4 >= -1
 idk_2!19!0: y_0!4_1!4 - x_0!4 <= 0
 idk_2!19!1: y_0!4_1!4 - x_1!4 <= 0
 sum_2!20: y_0!5_1!4 - x_0!5 - x_1!4 >= -1
 idk_2!20!0: y_0!5_1!4 - x_0!5 <= 0
 idk_2!20!1: y_0!5_1!4 - x_1!4 <= 0
 sum_2!21: y_0!1_1!5 - x_0!1 - x_1!5 >= -1
 idk_2!21!0: y_0!1_1!5 - x_0!1 <= 0
 idk_2!21!1: y_0!1_1!5 - x_1!5 <= 0
 sum_2!22: y_0!2_1!5 - x_0!2 - x_1!5 >= -1
 idk_2!22!0: y_0!2_1!5 - x_0!2 <= 0
 idk_2!22!1: y_0!2_1!5 - x_1!5 <= 0
 sum_2!23: y_0!3_1!5 - x_0!3 - x_1!5 >= -1
 idk_2!23!0: y_0!3_1!5 - x_0!3 <= 0
 idk_2!23!1: y_0!3_1!5 - x_1!5 <= 0
 sum_2!24: y_0!4_1!5 - x_0!4 - x_1!5 >= -1
 idk_2!24!0: y_0!4_1!5 - x_0!4 <= 0
 idk_2!24!1: y_0!4_1!5 - x_1!5 <= 0
 sum_2!25: y_0!5_1!5 - x_0!5 - x_1!5 >= -1
 idk_2!25!0: y_0!5_1!5 - x_0!5 <= 0
 idk_2!25!1: y_0!5_1!5 - x_1!5 <= 0
Bounds
 mu_0 free
 mu_1 free
 mu_2 free
Binary
 x_0!1 x_0!2 x_0!3 x_0!4 x_0!5 x_1!1 x_1!2 x_1!3 x_1!4 x_1!5 x_2!1 x_2!2 x_2!3 x_2!4 x_2!5
End
